variable	sname index 299
log		${sname}.spe.log

units 		real
newton		on
boundary        fm fm fm
processors      1 * *


atom_style	wavepacket

read_data  inconfig/${sname}.data

#neighbor        2.0 nsq

pair_style      awpmd/cut 8. hartree ermscale 1.0 free flex_press
#pair_style      awpmd/cut -1. uhf ermscale 0.99 free flex_press
pair_coeff 	    * *



timestep        0.001

fix             1 all nve/awpmd

comm_modify	vel yes

compute         energies all pair awpmd/cut
variable        eke equal c_energies[1]
variable        epauli equal c_energies[2]
variable        estatics equal c_energies[3]
variable        errestrain equal c_energies[4]

compute         peratom all stress/atom NULL
compute         p all reduce sum c_peratom[1] c_peratom[2] c_peratom[3]
variable        press equal -(c_p[1]+c_p[2]+c_p[3])/(3*vol)
variable 	etotal_ev equal etotal/627.509474*27.211386

thermo          1
thermo_style    custom step etotal v_etotal_ev pe ke v_eke v_epauli v_estatics v_errestrain
neigh_modify 	one 100000
neigh_modify 	page 1000001

run 		0
