variable	sname index 64
log		${sname}.spe.log

units 		real
newton		on
boundary        m m m
processors      1 * *


atom_style	wavepacket

read_data  	${sname}.data

#neighbor        2.0 nsq

pair_style      awpmd/cut -1. hartree ermscale 0.99 free flex_press
pair_coeff 	    * *

fix		w1 all wall/awpmd  0.861554971715096 -1 10

timestep        0.001

comm_modify	vel yes

compute         energies all pair awpmd/cut
variable        eke equal c_energies[1]
variable        epauli equal c_energies[2]
variable        estatics equal c_energies[3]
variable        errestrain equal c_energies[4]

compute         peratom all stress/atom NULL
compute         p all reduce sum c_peratom[1] c_peratom[2] c_peratom[3]
variable 		etotal_ev equal etotal/627.509474*27.211386

compute         kinetik all ke

variable        mc_eng equal c_energies+c_kinetik+v_eke
fix             mc all wpmc/awpmd mc_eng 10000

variable        accept equal f_mc[1]
variable        mc_energy equal f_mc[2]
variable        step_energy equal f_mc[3]

fix 			ave all ave/time 1 10 100 c_energies c_kinetik v_mc_eng v_accept c_energies[*] file ave_mc.dat off 1

thermo          1
thermo_modify	norm yes
thermo_style    custom step etotal v_etotal_ev pe ke v_eke v_epauli v_estatics v_errestrain temp v_accept
dump 			h5md_dump all h5md 10 dump_h5md.h5 position velocity species box yes
run 		1000

